pair_coeff 19 19 lj/charmm/coul/long 0.0157 2.471353044121301   # Veenstra et al JCC,8,(1992),963
pair_coeff 20 20 lj/charmm/coul/long 0.0157 2.2931733004932333   # Veenstra et al JCC,8,(1992),963
pair_coeff 21 21 lj/charmm/coul/long 0.0157 2.1149935568651657   # Veenstra et al JCC,8,(1992),963
pair_coeff 22 22 lj/charmm/coul/long 0.0150 2.5105525877194763   # Spellmeyer, one electrowithdr. neighbor
pair_coeff 23 23 lj/charmm/coul/long 0.0150 2.421462715905442   # Spellmeyer, two electrowithdr. neighbor
pair_coeff 24 24 lj/charmm/coul/long 0.0150 2.59964245953351   # Spellmeyer
pair_coeff 25 25 lj/charmm/coul/long 0.0157 2.649532787749369   # OPLS
pair_coeff 26 26 lj/charmm/coul/long 0.0157 1.069078461768407   # !Ferguson base pair geom.
pair_coeff 27 27 lj/charmm/coul/long 0.0000 0.0   # OPLS Jorgensen, JACS,110,(1988),1657
pair_coeff 28 28 lj/charmm/coul/long 0.0157 1.069078461768407   # same to hs (be careful !)
pair_coeff 29 29 lj/charmm/coul/long 0.0157 1.069078461768407   # W. Cornell CH3SH --> CH3OH FEP
pair_coeff 30 30 lj/charmm/coul/long 0.0000 0.0   # OPLS Jorgensen, JACS,110,(1988),1657
pair_coeff 31 31 lj/charmm/coul/long 0.0157 1.9599771799087466   # Veenstra et al JCC,8,(1992),963
pair_coeff 57 57 lj/charmm/coul/long 0.2100 2.959921901149463   # OPLS
pair_coeff 58 58 lj/charmm/coul/long 0.2104 3.0664733878390478   # OPLS
pair_coeff 59 59 lj/charmm/coul/long 0.1700 3.0000123434657784   # OPLS ether
pair_coeff 60 60 lj/charmm/coul/long 0.1700 3.0000123434657784   # OPLS ether
pair_coeff 61 61 lj/charmm/coul/long 0.1700 3.0000123434657784   # OPLS ether
pair_coeff 62 62 lj/charmm/coul/long 0.1520 3.150752406575124   # TIP3P water model
pair_coeff 1 1 lj/charmm/coul/long 0.0860 3.3996695084235347   # OPLS
pair_coeff 2 2 lj/charmm/coul/long 0.2100 3.3996695084235347   # cp C DLM 11/2007 well depth from OPLS replacing 0.0860
pair_coeff 3 3 lj/charmm/coul/long 0.0860 3.3996695084235347   # sp2 atom in the middle of C=CD-CD=C
pair_coeff 4 4 lj/charmm/coul/long 0.1094 3.3996695084235347   # OPLS
pair_coeff 5 5 lj/charmm/coul/long 0.0860 3.3996695084235347   # OPLS
pair_coeff 8 8 lj/charmm/coul/long 0.0860 3.3996695084235347   # OPLS
pair_coeff 9 9 lj/charmm/coul/long 0.0860 3.3996695084235347   # OPLS
pair_coeff 10 10 lj/charmm/coul/long 0.0860 3.3996695084235347   # OPLS
pair_coeff 11 11 lj/charmm/coul/long 0.0860 3.3996695084235347   # OPLS
pair_coeff 12 12 lj/charmm/coul/long 0.2100 3.3996695084235347   # DLM 12/2007 as c1
pair_coeff 13 13 lj/charmm/coul/long 0.2100 3.3996695084235347   # DLM 12/2007 as c1
pair_coeff 6 6 lj/charmm/coul/long 0.0860 3.3996695084235347   # OPLS
pair_coeff 7 7 lj/charmm/coul/long 0.0860 3.3996695084235347   # OPLS
pair_coeff 16 16 lj/charmm/coul/long 0.0860 3.3996695084235347   # OPLS
pair_coeff 17 17 lj/charmm/coul/long 0.0860 3.3996695084235347   # OPLS
pair_coeff 14 14 lj/charmm/coul/long 0.0860 3.3996695084235347   # OPLS
pair_coeff 15 15 lj/charmm/coul/long 0.0860 3.3996695084235347   # OPLS
pair_coeff 18 18 lj/charmm/coul/long 0.0860 3.3996695084235347   # OPLS
pair_coeff 36 36 lj/charmm/coul/long 0.1700 3.249998523775958   # OPLS
pair_coeff 49 49 lj/charmm/coul/long 0.1700 3.249998523775958   # OPLS
pair_coeff 50 50 lj/charmm/coul/long 0.1700 3.249998523775958   # OPLS
pair_coeff 37 37 lj/charmm/coul/long 0.1700 3.249998523775958   # OPLS
pair_coeff 38 38 lj/charmm/coul/long 0.1700 3.249998523775958   # OPLS
pair_coeff 39 39 lj/charmm/coul/long 0.1700 3.249998523775958   # OPLS
pair_coeff 55 55 lj/charmm/coul/long 0.1700 3.249998523775958   # OPLS
pair_coeff 56 56 lj/charmm/coul/long 0.1700 3.249998523775958   # OPLS
pair_coeff 40 40 lj/charmm/coul/long 0.1700 3.249998523775958   # OPLS
pair_coeff 51 51 lj/charmm/coul/long 0.1700 3.249998523775958   # OPLS
pair_coeff 52 52 lj/charmm/coul/long 0.1700 3.249998523775958   # OPLS
pair_coeff 41 41 lj/charmm/coul/long 0.1700 3.249998523775958   # OPLS
pair_coeff 42 42 lj/charmm/coul/long 0.1700 3.249998523775958   # OPLS
pair_coeff 43 43 lj/charmm/coul/long 0.1700 3.249998523775958   # OPLS
pair_coeff 44 44 lj/charmm/coul/long 0.1700 3.249998523775958   # OPLS
pair_coeff 45 45 lj/charmm/coul/long 0.1700 3.249998523775958   # OPLS
pair_coeff 46 46 lj/charmm/coul/long 0.1700 3.249998523775958   # OPLS
pair_coeff 47 47 lj/charmm/coul/long 0.1700 3.249998523775958   # OPLS
pair_coeff 53 53 lj/charmm/coul/long 0.1700 3.249998523775958   # OPLS
pair_coeff 54 54 lj/charmm/coul/long 0.1700 3.249998523775958   # OPLS
pair_coeff 48 48 lj/charmm/coul/long 0.1700 3.249998523775958   # OPLS
pair_coeff 74 74 lj/charmm/coul/long 0.2500 3.563594872561357   # W. Cornell CH3SH and CH3SCH3 FEP's
pair_coeff 75 75 lj/charmm/coul/long 0.2500 3.563594872561357   # W. Cornell CH3SH and CH3SCH3 FEP's
pair_coeff 76 76 lj/charmm/coul/long 0.2500 3.563594872561357   # W. Cornell CH3SH and CH3SCH3 FEP's
pair_coeff 77 77 lj/charmm/coul/long 0.2500 3.563594872561357   # W. Cornell CH3SH and CH3SCH3 FEP's
pair_coeff 82 82 lj/charmm/coul/long 0.2500 3.563594872561357   # W. Cornell CH3SH and CH3SCH3 FEP's
pair_coeff 83 83 lj/charmm/coul/long 0.2500 3.563594872561357   # W. Cornell CH3SH and CH3SCH3 FEP's
pair_coeff 78 78 lj/charmm/coul/long 0.2500 3.563594872561357   # W. Cornell CH3SH and CH3SCH3 FEP's
pair_coeff 79 79 lj/charmm/coul/long 0.2500 3.563594872561357   # W. Cornell CH3SH and CH3SCH3 FEP's
pair_coeff 80 80 lj/charmm/coul/long 0.2500 3.563594872561357   # W. Cornell CH3SH and CH3SCH3 FEP's
pair_coeff 81 81 lj/charmm/coul/long 0.2500 3.563594872561357   # W. Cornell CH3SH and CH3SCH3 FEP's
pair_coeff 63 63 lj/charmm/coul/long 0.2000 3.741774616189425   # JCC,7,(1986),230;
pair_coeff 64 64 lj/charmm/coul/long 0.2000 3.741774616189425   # JCC,7,(1986),230;
pair_coeff 65 65 lj/charmm/coul/long 0.2000 3.741774616189425   # JCC,7,(1986),230;
pair_coeff 66 66 lj/charmm/coul/long 0.2000 3.741774616189425   # JCC,7,(1986),230;
pair_coeff 67 67 lj/charmm/coul/long 0.2000 3.741774616189425   # JCC,7,(1986),230;
pair_coeff 68 68 lj/charmm/coul/long 0.2000 3.741774616189425   # JCC,7,(1986),230;
pair_coeff 69 69 lj/charmm/coul/long 0.2000 3.741774616189425   # JCC,7,(1986),230;
pair_coeff 70 70 lj/charmm/coul/long 0.2000 3.741774616189425   # JCC,7,(1986),230;
pair_coeff 71 71 lj/charmm/coul/long 0.2000 3.741774616189425   # JCC,7,(1986),230;
pair_coeff 72 72 lj/charmm/coul/long 0.2000 3.741774616189425   # JCC,7,(1986),230;
pair_coeff 73 73 lj/charmm/coul/long 0.2000 3.741774616189425   # JCC,7,(1986),230;
pair_coeff 32 32 lj/charmm/coul/long 0.061 3.1181455134911875   # Gough et al. JCC 13,(1992),963.
pair_coeff 33 33 lj/charmm/coul/long 0.265 3.4709414058747616   # Fox, JPCB,102,8070,(98),flex.mdl CHCl3
pair_coeff 34 34 lj/charmm/coul/long 0.420 3.599230821286971   # Junmei, 2010
pair_coeff 35 35 lj/charmm/coul/long 0.50 3.8308644880034586   # Junmei, 2010
    bond_coeff 1 harmonic 553.0 0.9572   # TIP3P_Water 1
    bond_coeff 2 harmonic 553.0 1.5136   # TIP3P_Water 1
    bond_coeff 3 harmonic 123.2 2.5420   # SOURCE1 4
    bond_coeff 4 harmonic 352.7 1.7870   # SOURCE2 4 0.0024
    bond_coeff 5 harmonic 272.3 1.8928   # SOURCE1_SOURCE5 25 0.0078
    bond_coeff 6 harmonic 240.3 1.9460   # SOURCE2 2 0.0285
    bond_coeff 7 harmonic 223.4 1.9779   # SOURCE1_SOURCE5 146 0.0118
    bond_coeff 8 harmonic 262.7 1.9079   # SOURCE1_SOURCE5 462 0.0052
    bond_coeff 9 harmonic 277.4 1.8850   # SOURCE4_SOURCE5 128 0.0078
    bond_coeff 10 harmonic 245.4 1.9370   # 5/2017 11 0.0019
    bond_coeff 11 harmonic 0.0 2.6710   # SOURCE1 2 0.0245
    bond_coeff 12 harmonic 330.4 1.8600   # SOUECE3 1
    bond_coeff 13 harmonic 219.0 2.0380   # SOURCE3 5 0.1082
    bond_coeff 14 harmonic 320.2 1.8730   # SOURCE3 4 0.0046
    bond_coeff 15 harmonic 265.9 1.9520   # SOURCE3 2
    bond_coeff 16 harmonic 282.4 1.9260   # SOURCE3 3 0.0013
    bond_coeff 17 harmonic 237.3 2.0020   # SOURCE3 7 0.2156
    bond_coeff 18 harmonic 270.9 1.9440   # SOURCE3 1
    bond_coeff 19 harmonic 191.0 2.1010   # SOURCE3 1
    bond_coeff 20 harmonic 278.9 1.8000   # SOUECE3 1
    bond_coeff 21 harmonic 237.2 1.8660   # SOURCE3 1
    bond_coeff 22 harmonic 225.6 1.8870   # SOURCE3 2
    bond_coeff 23 harmonic 174.3 2.2100   # SOURCE3 9 0.0510
    bond_coeff 24 harmonic 167.0 2.2310   # SOURCE3 3 0.0101
    bond_coeff 25 harmonic 188.8 2.1710   # SOUECE3 1
    bond_coeff 26 harmonic 179.3 2.1960   # SOURCE3 3 0.0099
    bond_coeff 27 harmonic 170.6 2.2200   # SOUECE3 1
    bond_coeff 28 harmonic 134.3 2.3410   # SOURCE3 1
    bond_coeff 29 harmonic 172.7 2.2140   # SOURCE3 3 0.0443
    bond_coeff 30 harmonic 174.4 2.2090   # SOURCE3 1
    bond_coeff 31 harmonic 176.6 2.2030   # SOURCE3 3 0.0035
    bond_coeff 32 harmonic 923.7 1.1983   # SOURCE1_SOURCE5 659 0.0039
    bond_coeff 33 harmonic 625.0 1.3070   # SOURCE1 18
    bond_coeff 34 harmonic 371.6 1.4671   # SOURCE1_SOURCE5 795 0.0034
    bond_coeff 35 harmonic 404.1 1.4400   # SOUECE3 1
    bond_coeff 36 harmonic 607.4 1.3153   # SOURCE4 6 0.0086
    bond_coeff 37 harmonic 865.1 1.2159   # SOURCE3_SOURCE5 179 0.0036
    bond_coeff 38 harmonic 854.0 1.2194   # SOURCE3_SOURCE5 13 0.0016
    bond_coeff 39 harmonic 419.7 1.6310   # SOURCE2 6 0.0050
    bond_coeff 40 harmonic 398.0 1.4450   # 5/2017 24 0.0043
    bond_coeff 41 harmonic 469.4 1.2700   # SOURCE2 2 0.0085
    bond_coeff 42 harmonic 374.7 1.0668   # SOURCE3_SOURCE5 343 0.0013
    bond_coeff 43 harmonic 385.6 1.0600   # SOUECE3 1
    bond_coeff 44 harmonic 318.8 1.9890   # SOURCE2 4 0.0032
    bond_coeff 45 harmonic 954.6 1.1535   # SOURCE1_SOURCE5 481 0.0035
    bond_coeff 46 harmonic 807.8 1.1971   # SOURCE3_SOURCE5 36 0.0076
    bond_coeff 47 harmonic 474.3 1.3475   # SOURCE2_SOURCE5 10 0.0093
    bond_coeff 48 harmonic 378.2 1.4170   # SOURCE3 3 0.0032
    bond_coeff 49 harmonic 503.0 1.3300   # SOUECE3 1
    bond_coeff 50 harmonic 452.0 1.3620   # SOURCE3 8 0.0034
    bond_coeff 51 harmonic 792.2 1.2023   # SOURCE4_SOURCE5 31 0.0124
    bond_coeff 52 harmonic 792.2 1.2023   # SOURCE4_SOURCE5 21 0.0141
    bond_coeff 53 harmonic 482.6 1.3423   # SOURCE4_SOURCE5 33 0.0061
    bond_coeff 54 harmonic 393.0 1.4050   # SOURCE3 3 0.0005
    bond_coeff 55 harmonic 758.1 1.1724   # SOURCE2_SOURCE5 31 0.0068
    bond_coeff 56 harmonic 435.6 1.3260   # SOURCE3 1
    bond_coeff 57 harmonic 447.5 1.3181   # SOURCE3_SOURCE5 8 0.0079
    bond_coeff 58 harmonic 289.3 1.7700   # SOUECE3 1
    bond_coeff 59 harmonic 275.1 1.7900   # SOUECE3 1
    bond_coeff 60 harmonic 275.1 1.7900   # SOUECE3 1
    bond_coeff 61 harmonic 302.2 1.7530   # SOURCE3 2
    bond_coeff 62 harmonic 410.0 1.5950   # SOURCE3 1
    bond_coeff 63 harmonic 400.6 1.6032   # SOURCE1_SOURCE5 37 0.0043
    bond_coeff 64 harmonic 272.9 1.7460   # SOURCE3 2
    bond_coeff 65 harmonic 290.4 1.7220   # SOURCE3 2
    bond_coeff 66 harmonic 324.5 1.6800   # SOUECE3 1
    bond_coeff 67 harmonic 316.2 1.6898   # SOURCE1_SOURCE5 49 0.0113
    bond_coeff 68 harmonic 569.4 1.3343   # SOURCE1_SOURCE5 3727 0.0053
    bond_coeff 69 harmonic 326.8 1.5095   # SOURCE1_SOURCE5 10204 0.0042
    bond_coeff 70 harmonic 482.1 1.3846   # SOUECE3_SOURCE5 9 0.0149
    bond_coeff 71 harmonic 523.8 1.3593   # SOURCE1_SOURCE5 882 0.0181
    bond_coeff 72 harmonic 523.8 1.3593   # SOURCE1_SOURCE5 882 0.0181
    bond_coeff 73 harmonic 547.3 1.3461   # SOURCE3_SOURCE5 3239 0.0058
    bond_coeff 74 harmonic 547.3 1.3461   # SOURCE3_SOURCE5 3177 0.0057
    bond_coeff 75 harmonic 321.3 1.7308   # SOURCE1_SOURCE5 290 0.0098
    bond_coeff 76 harmonic 590.0 1.3240   # 5/2017 11 0.0010
    bond_coeff 77 harmonic 352.0 1.4850   # 5/2017 76 0.0060
    bond_coeff 78 harmonic 325.6 1.5110   # 5/2017 21 0.0067
    bond_coeff 79 harmonic 370.6 1.3385   # SOURCE1_SOURCE5 35 0.0085
    bond_coeff 80 harmonic 344.6 1.0868   # SOURCE3_SOURCE5 517 0.0028
    bond_coeff 81 harmonic 338.4 1.0912   # SOURCE4_SOURCE5 116 0.0021
    bond_coeff 82 harmonic 343.1 1.0879   # SOURCE3_SOURCE5 5991 0.0019
    bond_coeff 83 harmonic 344.3 1.0870   # SOURCE3 789 0.0046
    bond_coeff 84 harmonic 350.1 1.0830   # SOURCE3 3 0.0008
    bond_coeff 85 harmonic 215.4 2.1701   # SOURCE3_SOURCE5 7 0.0194
    bond_coeff 86 harmonic 546.0 1.3060   # SOURCE3 4 0.0161
    bond_coeff 87 harmonic 594.1 1.2817   # SOURCE1_SOURCE5 1004 0.0051
    bond_coeff 88 harmonic 486.3 1.3400   # SOUECE3 1
    bond_coeff 89 harmonic 400.1 1.3994   # SOURCE3_SOURCE5 174 0.0100
    bond_coeff 90 harmonic 282.0 1.5125   # SOURCE3_SOURCE5 21 0.0133
    bond_coeff 91 harmonic 397.4 1.4015   # SOURCE3_SOURCE5 65 0.0179
    bond_coeff 92 harmonic 533.0 1.3130   # SOURCE1 99 0.0095
    bond_coeff 93 harmonic 533.0 1.3130   # SOURCE1 99
    bond_coeff 94 harmonic 574.1 1.2915   # SOURCE3_SOURCE5 310 0.0099
    bond_coeff 95 harmonic 574.1 1.2915   # SOURCE3_SOURCE5 273 0.0098
    bond_coeff 96 harmonic 416.2 1.3872   # SOURCE3_SOURCE5 1559 0.0120
    bond_coeff 97 harmonic 343.0 1.4481   # SOURCE4_SOURCE5 27 0.0139
    bond_coeff 98 harmonic 622.9 1.2247   # SOURCE4_SOURCE5 35 0.0033
    bond_coeff 99 harmonic 417.6 1.3385   # SOURCE1_SOURCE5 85 0.0126
    bond_coeff 100 harmonic 389.2 1.3596   # SOURCE1_SOURCE5 548 0.0107
    bond_coeff 101 harmonic 377.3 1.6686   # SOURCE3_SOURCE5 87 0.0126
    bond_coeff 102 harmonic 246.6 1.8340   # SOURCE3 5 0.0042
    bond_coeff 103 harmonic 254.0 1.8220   # SOUECE3 1
    bond_coeff 104 harmonic 230.0 1.8626   # SOURCE4_SOURCE5 15 0.0083
    bond_coeff 105 harmonic 357.6 1.6886   # SOURCE3_SOURCE5 60 0.0472
    bond_coeff 106 harmonic 357.6 1.6886   # SOURCE3_SOURCE5 8 0.0019
    bond_coeff 107 harmonic 393.1 1.6100   # SOURCE2 1
    bond_coeff 108 harmonic 281.5 1.7340   # SOURCE3 4 0.0034
    bond_coeff 109 harmonic 263.2 1.7600   # SOUECE3 1
    bond_coeff 110 harmonic 263.2 1.7600   # SOUECE3 1
    bond_coeff 111 harmonic 248.9 1.7820   # SOURCE4_SOURCE5 13 0.0077
    bond_coeff 112 harmonic 280.0 1.7360   # SOURCE1 209 0.0155
    bond_coeff 113 harmonic 300.9 1.5375   # SOURCE1_SOURCE5 88072 0.0058
    bond_coeff 114 harmonic 321.0 1.5156   # SOURCE1_SOURCE5 10699 0.0054
    bond_coeff 115 harmonic 334.8 1.5015   # SOURCE3_SOURCE5 3926 0.0049
    bond_coeff 116 harmonic 334.8 1.5015   # SOURCE3_SOURCE5 3926 0.0049
    bond_coeff 117 harmonic 320.7 1.5159   # SOURCE3_SOURCE5 1210 0.0060
    bond_coeff 118 harmonic 320.9 1.5157   # SOURCE3_SOURCE5 345 0.0071
    bond_coeff 119 harmonic 266.3 1.8045   # SOURCE1_SOURCE5 1173 0.0119
    bond_coeff 120 harmonic 353.1 1.4840   # 5/2017 2
    bond_coeff 121 harmonic 335.4 1.5010   # 5/2017 1
    bond_coeff 122 harmonic 315.1 1.5220   # 5/2017 849 0.0062
    bond_coeff 123 harmonic 304.2 1.5340   # 5/2017 522 0.0055
    bond_coeff 124 harmonic 356.9 1.3497   # SOURCE1_SOURCE5 2188 0.0139
    bond_coeff 125 harmonic 330.6 1.0969   # SOURCE3_SOURCE5 112144 0.0055
    bond_coeff 126 harmonic 331.7 1.0961   # SOURCE3_SOURCE5 2681 0.0032
    bond_coeff 127 harmonic 333.3 1.0949   # SOURCE4_SOURCE5 64 0.0028
    bond_coeff 128 harmonic 330.6 1.0969   # SOURCE3_SOURCE5 133628 0.0015
    bond_coeff 129 harmonic 338.7 1.0910   # SOURCE3_SOURCE5 6495 0.0022
    bond_coeff 130 harmonic 197.8 2.2117   # SOURCE1_SOURCE5 35 0.0128
    bond_coeff 131 harmonic 359.6 1.4330   # SOURCE3_SOURCE5 7 0.0033
    bond_coeff 132 harmonic 324.5 1.4661   # SOURCE1_SOURCE5 816 0.0087
    bond_coeff 133 harmonic 328.7 1.4619   # SOURCE1_SOURCE5 4576 0.0061
    bond_coeff 134 harmonic 325.9 1.4647   # SOURCE1_SOURCE5 15206 0.0039
    bond_coeff 135 harmonic 283.3 1.5110   # SOURCE1_SOURCE5 2375 0.0125
    bond_coeff 136 harmonic 327.7 1.4629   # SOURCE3_SOURCE5 1732 0.0077
    bond_coeff 137 harmonic 334.7 1.4560   # SOURCE3 9 0.0109
    bond_coeff 138 harmonic 334.7 1.4560   # SOURCE3 9
    bond_coeff 139 harmonic 326.6 1.4640   # SOURCE3_SOURCE5 3492 0.0064
    bond_coeff 140 harmonic 265.1 1.5334   # SOURCE1_SOURCE5 150 0.0187
    bond_coeff 141 harmonic 449.9 1.3165   # SOURCE4 8 0.0193
    bond_coeff 142 harmonic 316.7 1.4233   # SOURCE1_SOURCE5 8884 0.0067
    bond_coeff 143 harmonic 308.6 1.4316   # SOURCE1_SOURCE5 17971 0.0103
    bond_coeff 144 harmonic 234.3 1.8550   # SOURCE3 9 0.0125
    bond_coeff 145 harmonic 232.5 1.8582   # SOURCE3_SOURCE5 221 0.0094
    bond_coeff 146 harmonic 243.8 1.8387   # SOURCE3_SOURCE5 45 0.0106
    bond_coeff 147 harmonic 243.3 1.8395   # SOURCE1_SOURCE5 408 0.0183
    bond_coeff 148 harmonic 249.9 1.8286   # SOURCE3_SOURCE5 35 0.0083
    bond_coeff 149 harmonic 243.2 1.8397   # SOURCE3_SOURCE5 39 0.0126
    bond_coeff 150 harmonic 212.9 1.8450   # SOURCE3 4 0.0185
    bond_coeff 151 harmonic 220.6 1.8305   # SOURCE1_SOURCE5 326 0.0096
    bond_coeff 152 harmonic 233.5 1.8075   # SOURCE1_SOURCE5 644 0.0143
    bond_coeff 153 harmonic 213.7 1.8435   # SOURCE3_SOURCE5 189 0.0058
    bond_coeff 154 harmonic 215.9 1.8392   # SOURCE1_SOURCE5 2732 0.0105
    bond_coeff 155 harmonic 214.6 1.8418   # SOURCE3_SOURCE5 99 0.0121
    bond_coeff 156 harmonic 232.8 1.8087   # SOURCE3_SOURCE5 162 0.0094
    bond_coeff 157 harmonic 461.1 1.3984   # SOURCE1_SOURCE5 121206 0.0061
    bond_coeff 158 harmonic 385.1 1.4555   # SOURCE1_SOURCE5 2424 0.0121
    bond_coeff 159 harmonic 385.1 1.4555   # SOURCE1_SOURCE5 2424 0.0121
    bond_coeff 160 harmonic 361.3 1.4763   # SOURCE1_SOURCE5 1750 0.0089
    bond_coeff 161 harmonic 361.3 1.4763   # SOURCE1_SOURCE5 1750 0.0089
    bond_coeff 162 harmonic 413.3 1.4328   # SOURCE1_SOURCE5 318 0.0029
    bond_coeff 163 harmonic 413.3 1.4328   # SOURCE1_SOURCE5 318 0.0029
    bond_coeff 164 harmonic 305.6 1.7502   # SOURCE1_SOURCE5 2919 0.0059
    bond_coeff 165 harmonic 450.2 1.4058   # CORR_SOURCE5 2042 0.0049
    bond_coeff 166 harmonic 450.2 1.4058   # CORR_SOURCE5 2042 0.0049
    bond_coeff 167 harmonic 340.5 1.4960   # 5/2017 67 0.0051
    bond_coeff 168 harmonic 320.8 1.5160   # 5/2017 27 0.0058
    bond_coeff 169 harmonic 357.8 1.3490   # SOURCE1_SOURCE5 1239 0.0057
    bond_coeff 170 harmonic 341.5 1.0890   # SOURCE3_SOURCE5 2643 0.0010
    bond_coeff 171 harmonic 343.2 1.0878   # SOURCE3_SOURCE5 299 0.0007
    bond_coeff 172 harmonic 345.8 1.0860   # SOURCE3_SOURCE5 65456 0.0010
    bond_coeff 173 harmonic 234.9 2.1288   # SOURCE1_SOURCE5 61 0.0076
    bond_coeff 174 harmonic 494.6 1.3350   # SOURCE3_SOURCE5 6 0.0078
    bond_coeff 175 harmonic 551.6 1.3030   # SOURCE4 7 0.0058
    bond_coeff 176 harmonic 384.2 1.4121   # SOURCE3_SOURCE5 1254 0.0090
    bond_coeff 177 harmonic 307.0 1.4842   # SOURCE1_SOURCE5 28 0.0065
    bond_coeff 178 harmonic 420.5 1.3840   # SOURCE1_SOURCE5 2751 0.0095
    bond_coeff 179 harmonic 488.0 1.3390   # SOURCE3_SOURCE5 6806 0.0055
    bond_coeff 180 harmonic 467.7 1.3517   # SOURCE1_SOURCE5 2672 0.0030
    bond_coeff 181 harmonic 467.7 1.3517   # SOURCE1_SOURCE5 2672 0.0030
    bond_coeff 182 harmonic 389.3 1.4079   # SOURCE1_SOURCE5 276 0.0093
    bond_coeff 183 harmonic 389.3 1.4079   # SOURCE1_SOURCE5 276 0.0093
    bond_coeff 184 harmonic 417.9 1.3859   # SOURCE1_SOURCE5 2785 0.0134
    bond_coeff 185 harmonic 321.7 1.4689   # SOURCE1_SOURCE5 454 0.0049
    bond_coeff 186 harmonic 598.1 1.2358   # SOURCE4_SOURCE5 17 0.0088
    bond_coeff 187 harmonic 384.0 1.3637   # SOURCE1_SOURCE5 3637 0.0062
    bond_coeff 188 harmonic 376.6 1.3696   # SOURCE1_SOURCE5 6900 0.0064
    bond_coeff 189 harmonic 243.0 1.8400   # SOUECE3 1
    bond_coeff 190 harmonic 251.7 1.8257   # SOURCE1_SOURCE5 156 0.0180
    bond_coeff 191 harmonic 264.3 1.8060   # SOUECE3 1
    bond_coeff 192 harmonic 271.5 1.7952   # SOURCE1_SOURCE5 577 0.0028
    bond_coeff 193 harmonic 249.6 1.8290   # SOURCE3 10 0.0042
    bond_coeff 194 harmonic 249.6 1.8290   # SOURCE3 10 0.0042
    bond_coeff 195 harmonic 252.1 1.8250   # SOURCE3 5 0.0168
    bond_coeff 196 harmonic 257.7 1.8162   # SOURCE4_SOURCE5 34 0.0098
    bond_coeff 197 harmonic 277.9 1.7390   # SOURCE3 2
    bond_coeff 198 harmonic 245.2 1.7880   # SOURCE1 51 0.0048
    bond_coeff 199 harmonic 258.7 1.7669   # SOURCE1_SOURCE5 258 0.0041
    bond_coeff 200 harmonic 249.6 1.7809   # SOURCE4_SOURCE5 40 0.0053
    bond_coeff 201 harmonic 249.8 1.7806   # SOURCE1_SOURCE5 1016 0.0068
    bond_coeff 202 harmonic 223.6 1.8251   # SOURCE4_SOURCE5 90 0.0050
    bond_coeff 203 harmonic 243.4 1.7909   # SOURCE3_SOURCE5 703 0.0076
    bond_coeff 204 harmonic 379.8 1.4600   # SOUECE3 1
    bond_coeff 205 harmonic 449.9 1.4060   # SOURCE3 2 0.0370
    bond_coeff 206 harmonic 291.7 1.5482   # SOURCE1_SOURCE5 254 0.0090
    bond_coeff 207 harmonic 313.0 1.5241   # SOURCE1_SOURCE5 12697 0.0077
    bond_coeff 208 harmonic 345.9 1.4906   # SOURCE1_SOURCE5 4357 0.0085
    bond_coeff 209 harmonic 371.0 1.4676   # SOURCE3_SOURCE5 1864 0.0130
    bond_coeff 210 harmonic 419.8 1.4278   # SOURCE1_SOURCE5 4559 0.0096
    bond_coeff 211 harmonic 500.9 1.3729   # SOURCE3_SOURCE5 8451 0.0091
    bond_coeff 212 harmonic 386.9 1.4540   # CORR_SOURCE5 396 0.0089
    bond_coeff 213 harmonic 513.0 1.3656   # CORR_SOURCE5 156 0.0107
    bond_coeff 214 harmonic 422.6 1.4257   # SOURCE1_SOURCE5 109 0.0049
    bond_coeff 215 harmonic 420.9 1.4270   # SOURCE1 560
    bond_coeff 216 harmonic 317.5 1.7354   # CORR_SOURCE5 137 0.0076
    bond_coeff 217 harmonic 369.6 1.4690   # 5/2017 24 0.0036
    bond_coeff 218 harmonic 371.0 1.4676   # SOURCE3_SOURCE5 1864 0.0130
    bond_coeff 219 harmonic 354.5 1.4825   # SOURCE1_SOURCE5 3022 0.0115
    bond_coeff 220 harmonic 354.5 1.4825   # SOURCE1_SOURCE5 3022 0.0115
    bond_coeff 221 harmonic 367.8 1.3407   # SOURCE4_SOURCE5 70 0.0039
    bond_coeff 222 harmonic 390.2 1.4512   # SOURCE3_SOURCE5 11 0.0089
    bond_coeff 223 harmonic 390.2 1.4512   # SOURCE3_SOURCE5 11 0.0089
    bond_coeff 224 harmonic 352.0 1.0817   # SOURCE3_SOURCE5 4457 0.0016
    bond_coeff 225 harmonic 351.7 1.0819   # SOURCE3_SOURCE5 879 0.0012
    bond_coeff 226 harmonic 349.1 1.0837   # SOURCE3_SOURCE5 4706 0.0018
    bond_coeff 227 harmonic 267.4 1.8029   # SOURCE3_SOURCE5 16 0.0187
    bond_coeff 228 harmonic 576.1 1.2905   # CORR_SOURCE5 156 0.0074
    bond_coeff 229 harmonic 425.1 1.3807   # SOURCE3_SOURCE5 1142 0.0085
    bond_coeff 230 harmonic 299.0 1.4930   # SOURCE4 7 0.0148
    bond_coeff 231 harmonic 425.8 1.3802   # SOURCE3_SOURCE5 6739 0.0088
    bond_coeff 232 harmonic 441.1 1.3694   # SOURCE1_SOURCE5 2269 0.0086
    bond_coeff 233 harmonic 525.4 1.3172   # SOURCE3_SOURCE5 4612 0.0083
    bond_coeff 234 harmonic 428.0 1.3786   # SOURCE4_SOURCE5 82 0.0119
    bond_coeff 235 harmonic 560.3 1.2985   # CORR_SOURCE5 41 0.0113
    bond_coeff 236 harmonic 435.2 1.3735   # SOURCE3_SOURCE5 976 0.0106
    bond_coeff 237 harmonic 364.2 1.4289   # SOURCE4_SOURCE5 386 0.0074
    bond_coeff 238 harmonic 405.9 1.3470   # CORR_SOURCE5 248 0.0073
    bond_coeff 239 harmonic 386.1 1.3620   # SOURCE3_SOURCE5 1859 0.0083
    bond_coeff 240 harmonic 318.2 1.7330   # SOURCE3 84 0.0161
    bond_coeff 241 harmonic 257.1 1.7693   # SOURCE4_SOURCE5 22 0.0030
    bond_coeff 242 harmonic 265.8 1.7562   # SOURCE3_SOURCE5 2011 0.0134
    bond_coeff 243 harmonic 231.7 1.8107   # SOURCE4_SOURCE5 44 0.0033
    bond_coeff 244 harmonic 247.7 1.7839   # CORR_SOURCE5 73 0.0082
    bond_coeff 245 harmonic 441.4 1.4120   # SOURCE2 1
    bond_coeff 246 harmonic 333.4 1.5030   # 5/2017 246 0.0109
    bond_coeff 247 harmonic 288.6 1.5520   # 5/2017 374 0.0059
    bond_coeff 248 harmonic 419.8 1.4278   # SOURCE1_SOURCE5 4559 0.0096
    bond_coeff 249 harmonic 513.0 1.3656   # CORR_SOURCE5 156 0.0107
    bond_coeff 250 harmonic 386.9 1.4540   # CORR_SOURCE5 396 0.0089
    bond_coeff 251 harmonic 420.9 1.4270   # SOURCE1 560
    bond_coeff 252 harmonic 422.6 1.4257   # SOURCE1_SOURCE5 109 0.0049
    bond_coeff 253 harmonic 317.5 1.7354   # CORR_SOURCE5 137 0.0076
    bond_coeff 254 harmonic 357.4 1.4800   # 5/2017 13 0.0034
    bond_coeff 255 harmonic 331.4 1.5050   # 5/2017 11 0.0006
    bond_coeff 256 harmonic 352.0 1.0817   # SOURCE3_SOURCE5 4457 0.0016
    bond_coeff 257 harmonic 351.8 1.0818   # SOURCE3_SOURCE5 578 0.0013
    bond_coeff 258 harmonic 349.1 1.0837   # SOURCE3_SOURCE5 4706 0.0018
    bond_coeff 259 harmonic 576.1 1.2905   # CORR_SOURCE5 156 0.0074
    bond_coeff 260 harmonic 425.1 1.3807   # SOURCE3_SOURCE5 1142 0.0085
    bond_coeff 261 harmonic 425.8 1.3802   # SOURCE3_SOURCE5 6739 0.0088
    bond_coeff 262 harmonic 525.4 1.3172   # SOURCE3_SOURCE5 4612 0.0083
    bond_coeff 263 harmonic 441.1 1.3694   # SOURCE1_SOURCE5 2269 0.0086
    bond_coeff 264 harmonic 560.3 1.2985   # CORR_SOURCE5 41 0.0113
    bond_coeff 265 harmonic 435.2 1.3735   # SOURCE3_SOURCE5 976 0.0106
    bond_coeff 266 harmonic 405.9 1.3470   # CORR_SOURCE5 248 0.0073
    bond_coeff 267 harmonic 386.1 1.3620   # SOURCE3_SOURCE5 1859 0.0083
    bond_coeff 268 harmonic 318.2 1.7330   # SOURCE3 84
    bond_coeff 269 harmonic 265.8 1.7562   # SOURCE3_SOURCE5 2011 0.0134
    bond_coeff 270 harmonic 247.7 1.7839   # CORR_SOURCE5 73 0.0082
    bond_coeff 271 harmonic 382.8 1.4574   # SOURCE1_SOURCE5 1000 0.0092
    bond_coeff 272 harmonic 538.6 1.3509   # SOURCE1_SOURCE5 1908 0.0059
    bond_coeff 273 harmonic 420.9 1.4270   # SOURCE1_SOURCE5 238 0.0053
    bond_coeff 274 harmonic 415.6 1.4310   # SOURCE1 22
    bond_coeff 275 harmonic 294.9 1.7641   # SOURCE4_SOURCE5 90 0.0111
    bond_coeff 276 harmonic 333.4 1.5030   # 5/2017 26 0.0077
    bond_coeff 277 harmonic 319.8 1.5170   # 5/2017 36 0.0052
    bond_coeff 278 harmonic 337.8 1.0916   # CORR_SOURCE5 315 0.0033
    bond_coeff 279 harmonic 342.5 1.0883   # SOURCE3_SOURCE5 2751 0.0014
    bond_coeff 280 harmonic 536.5 1.3111   # CORR_SOURCE5 16 0.0049
    bond_coeff 281 harmonic 582.4 1.2874   # SOURCE1_SOURCE5 896 0.0038
    bond_coeff 282 harmonic 369.7 1.4242   # CORR_SOURCE5 209 0.0059
    bond_coeff 283 harmonic 373.6 1.4209   # SOURCE4_SOURCE5 11 0.0050
    bond_coeff 284 harmonic 406.9 1.3942   # SOURCE3_SOURCE5 69 0.0151
    bond_coeff 285 harmonic 564.4 1.2964   # CORR_SOURCE5 101 0.0097
    bond_coeff 286 harmonic 412.3 1.3901   # CORR_SOURCE5 300 0.0133
    bond_coeff 287 harmonic 401.6 1.3502   # CORR_SOURCE5 58 0.0102
    bond_coeff 288 harmonic 374.9 1.3710   # CORR_SOURCE5 96 0.0128
    bond_coeff 289 harmonic 259.1 1.8140   # SOUECE3 1
    bond_coeff 290 harmonic 256.5 1.8180   # SOURCE3 8 0.0108
    bond_coeff 291 harmonic 254.6 1.8210   # SOURCE3 6 0.0046
    bond_coeff 292 harmonic 264.5 1.8056   # SOURCE3_SOURCE5 22 0.0142
    bond_coeff 293 harmonic 324.5 1.6800   # SOUECE3 1
    bond_coeff 294 harmonic 249.3 1.7814   # SOURCE4_SOURCE5 56 0.0098
    bond_coeff 295 harmonic 227.2 1.8185   # SOURCE3_SOURCE5 30 0.0101
    bond_coeff 296 harmonic 245.1 1.7881   # SOURCE3_SOURCE5 41 0.0169
    bond_coeff 297 harmonic 387.9 1.3250   # SOURCE2 6 0.0147
    bond_coeff 298 harmonic 382.8 1.4574   # SOURCE1_SOURCE5 1000 0.0092
    bond_coeff 299 harmonic 415.6 1.4310   # SOURCE1 22
    bond_coeff 300 harmonic 420.9 1.4270   # SOURCE1_SOURCE5 238 0.0053
    bond_coeff 301 harmonic 337.8 1.0916   # CORR_SOURCE5 315 0.0033
    bond_coeff 302 harmonic 342.5 1.0883   # SOURCE3_SOURCE5 2751 0.0014
    bond_coeff 303 harmonic 536.5 1.3111   # CORR_SOURCE5 16 0.0049
    bond_coeff 304 harmonic 582.4 1.2874   # SOURCE1_SOURCE5 896 0.0038
    bond_coeff 305 harmonic 369.7 1.4242   # CORR_SOURCE5 209 0.0059
    bond_coeff 306 harmonic 564.4 1.2964   # CORR_SOURCE5 101 0.0097
    bond_coeff 307 harmonic 406.9 1.3942   # SOURCE3_SOURCE5 62 0.0156
    bond_coeff 308 harmonic 412.3 1.3901   # CORR_SOURCE5 300 0.0133
    bond_coeff 309 harmonic 401.6 1.3502   # CORR_SOURCE5 58 0.0102
    bond_coeff 310 harmonic 374.9 1.3710   # CORR_SOURCE5 96 0.0128
    bond_coeff 311 harmonic 259.1 1.8140   # SOUECE3 1
    bond_coeff 312 harmonic 256.5 1.8180   # SOURCE3 8
    bond_coeff 313 harmonic 254.6 1.8210   # SOURCE3 6
    bond_coeff 314 harmonic 264.5 1.8056   # SOURCE3_SOURCE5 17 0.0171
    bond_coeff 315 harmonic 324.5 1.6800   # SOUECE3 1
    bond_coeff 316 harmonic 227.2 1.8185   # SOURCE3_SOURCE5 25 0.0105
    bond_coeff 317 harmonic 245.1 1.7881   # SOURCE3_SOURCE5 36 0.0177
    bond_coeff 318 harmonic 506.8 1.3693   # SOURCE1_SOURCE5 62 0.0025
    bond_coeff 319 harmonic 898.8 1.2056   # SOURCE1_SOURCE5 156 0.0023
    bond_coeff 320 harmonic 943.1 1.1566   # SOURCE1_SOURCE5 879 0.0015
    bond_coeff 321 harmonic 509.7 1.3261   # SOURCE4_SOURCE5 68 0.0013
    bond_coeff 322 harmonic 429.8 1.6210   # SOURCE3 11 0.2008
    bond_coeff 323 harmonic 310.7 1.1121   # SOURCE4_SOURCE5 506 0.0025
    bond_coeff 324 harmonic 319.7 1.1051   # SOURCE4_SOURCE5 163 0.0038
    bond_coeff 325 harmonic 325.1 1.1010   # SOURCE3 53 0.0102
    bond_coeff 326 harmonic 506.8 1.3693   # SOURCE1_SOURCE5 62 0.0025
    bond_coeff 327 harmonic 943.1 1.1566   # SOURCE1_SOURCE5 879 0.0015
    bond_coeff 328 harmonic 509.7 1.3261   # SOURCE4_SOURCE5 51 0.0014
    bond_coeff 329 harmonic 429.8 1.6210   # SOURCE3 11
    bond_coeff 330 harmonic 198.9 2.2090   # SOURCE3 4 0.0365
    bond_coeff 331 harmonic 143.3 2.2670   # SOURCE1 2 0.0395
    bond_coeff 332 harmonic 277.6 1.7880   # 5/2017 42 0.0071
    bond_coeff 333 harmonic 273.4 1.7940   # 5/2017 26 0.0106
    bond_coeff 334 harmonic 0.1 1.6480   # SOURCE2 2 0.0500
    bond_coeff 335 harmonic 0.0 2.5500   # SOURCE1 6 0.0893
    bond_coeff 336 harmonic 431.6 1.6300   # SOUECE3 1
    bond_coeff 337 harmonic 263.4 1.8190   # SOURCE3 6 0.1020
    bond_coeff 338 harmonic 292.5 1.7772   # SOURCE4_SOURCE5 16 0.0044
    bond_coeff 339 harmonic 342.3 1.7161   # SOURCE4_SOURCE5 17 0.0049
    bond_coeff 340 harmonic 311.1 1.7530   # SOURCE3 4 0.0098
    bond_coeff 341 harmonic 253.2 1.8350   # SOURCE3 7 0.2083
    bond_coeff 342 harmonic 303.2 1.7630   # SOURCE3 1
    bond_coeff 343 harmonic 250.1 1.8400   # SOURCE2 1
    bond_coeff 344 harmonic 557.6 1.4830   # SOURCE3 4
    bond_coeff 345 harmonic 309.7 1.6900   # SOURCE2 1
    bond_coeff 346 harmonic 278.8 1.7300   # SOURCE3 4
    bond_coeff 347 harmonic 217.5 2.0700   # SOURCE3 6 0.0108